NAME : n60w60.003.619.tour
COMMENT : Length = 619
COMMENT : Found by LKH [Keld Helsgaun] Tue May  2 05:46:15 2017
TYPE : TOUR
DIMENSION : 61
TOUR_SECTION
1
53
61
44
32
4
18
39
8
24
38
25
22
15
54
29
26
20
37
58
10
3
33
56
13
51
47
21
23
28
31
52
30
40
46
5
36
50
59
43
35
6
7
14
57
9
42
17
48
19
16
27
41
12
55
34
45
49
60
11
2
-1
EOF
